nK = 675;
nT = 4;
nI = 7;
L = 29;
TT = 153;
np = 1;
nc = 3;
b = [38, 65, 25, 42, 44, 20, 51];
d = [74, 111, 39, 145, 67, 67, 105];
m = [2.5, 1, 1.9, 1.6, 2.3, 1.5, 1];
pt = [0.29, 0.21, 0.31, 0.24];
st = [12.18, 11.34, 17.67, 13.2];
arc = {<1, 0, 1, 1, 0, 0, 0, [1, 1, 1, 1]>, <2, 1, 2, 1, 0, 0, 0, [1, 1, 1, 1]>, <3, 2, 3, 1, 0, 0, 0, [1, 1, 1, 1]>, <4, 3, 4, 1, 0, 0, 0, [1, 1, 1, 1]>, <5, 4, 5, 1, 0, 0, 0, [1, 1, 1, 1]>, <6, 5, 6, 1, 0, 0, 0, [1, 1, 1, 1]>, <7, 6, 7, 1, 0, 0, 0, [1, 1, 1, 1]>, <8, 7, 8, 1, 0, 0, 0, [1, 1, 1, 1]>, <9, 8, 9, 1, 0, 0, 0, [1, 1, 1, 1]>, <10, 9, 10, 1, 0, 0, 0, [1, 1, 1, 1]>, <11, 10, 11, 1, 0, 0, 0, [1, 1, 1, 1]>, <12, 11, 12, 1, 0, 0, 0, [1, 1, 1, 1]>, <13, 12, 13, 1, 0, 0, 0, [1, 1, 1, 1]>, <14, 13, 14, 1, 0, 0, 0, [1, 1, 1, 1]>, <15, 14, 15, 1, 0, 0, 0, [1, 1, 1, 1]>, <16, 15, 16, 1, 0, 0, 0, [1, 1, 1, 1]>, <17, 16, 17, 1, 0, 0, 0, [1, 1, 1, 1]>, <18, 17, 18, 1, 0, 0, 0, [1, 1, 1, 1]>, <19, 18, 19, 1, 0, 0, 0, [1, 1, 1, 1]>, <20, 19, 20, 1, 0, 0, 0, [1, 1, 1, 1]>, <21, 20, 21, 1, 0, 0, 0, [1, 1, 1, 1]>, <22, 21, 22, 1, 0, 0, 0, [1, 1, 1, 1]>, <23, 22, 23, 1, 0, 0, 0, [1, 1, 1, 1]>, <24, 23, 24, 1, 0, 0, 0, [1, 1, 1, 1]>, <25, 24, 25, 1, 0, 0, 0, [1, 1, 1, 1]>, <26, 25, 26, 1, 0, 0, 0, [1, 1, 1, 1]>, <27, 26, 27, 1, 0, 0, 0, [1, 1, 1, 1]>, <28, 27, 28, 1, 0, 0, 0, [1, 1, 1, 1]>, <29, 28, 29, 1, 0, 0, 0, [1, 1, 1, 1]>, <30, 2, 12, 10, 1, 1, 0, [0, 1, 1, 0]>, <31, 3, 13, 10, 1, 1, 0, [0, 1, 1, 0]>, <32, 4, 14, 10, 1, 1, 0, [0, 1, 1, 0]>, <33, 5, 15, 10, 1, 1, 0, [0, 1, 1, 0]>, <34, 10, 20, 10, 1, 1, 0, [0, 1, 1, 0]>, <35, 11, 21, 10, 1, 1, 0, [0, 1, 1, 0]>, <36, 12, 22, 10, 1, 1, 0, [0, 1, 1, 0]>, <37, 14, 24, 10, 1, 1, 0, [0, 1, 1, 0]>, <38, 15, 25, 10, 1, 1, 0, [0, 1, 1, 0]>, <39, 16, 26, 10, 1, 1, 0, [0, 1, 1, 0]>, <40, 17, 27, 10, 1, 1, 0, [0, 1, 1, 0]>, <41, 18, 28, 10, 1, 1, 0, [0, 1, 1, 0]>, <42, 19, 29, 10, 1, 1, 0, [0, 1, 1, 0]>, <43, 1, 12, 11, 2, 1, 0, [1, 0, 0, 1]>, <44, 2, 13, 11, 2, 1, 0, [1, 0, 0, 1]>, <45, 3, 14, 11, 2, 1, 0, [1, 0, 0, 1]>, <46, 4, 15, 11, 2, 1, 0, [1, 0, 0, 1]>, <47, 5, 16, 11, 2, 1, 0, [1, 0, 0, 1]>, <48, 9, 20, 11, 2, 1, 0, [1, 0, 0, 1]>, <49, 10, 21, 11, 2, 1, 0, [1, 0, 0, 1]>, <50, 11, 22, 11, 2, 1, 0, [1, 0, 0, 1]>, <51, 12, 23, 11, 2, 1, 0, [1, 0, 0, 1]>, <52, 13, 24, 11, 2, 1, 0, [1, 0, 0, 1]>, <53, 14, 25, 11, 2, 1, 0, [1, 0, 0, 1]>, <54, 15, 26, 11, 2, 1, 0, [1, 0, 0, 1]>, <55, 16, 27, 11, 2, 1, 0, [1, 0, 0, 1]>, <56, 17, 28, 11, 2, 1, 0, [1, 0, 0, 1]>, <57, 18, 29, 11, 2, 1, 0, [1, 0, 0, 1]>, <58, 0, 14, 14, 3, 0, 0, [0, 1, 1, 0]>, <59, 1, 15, 14, 3, 0, 0, [0, 1, 1, 0]>, <60, 2, 16, 14, 3, 0, 0, [0, 1, 1, 0]>, <61, 3, 17, 14, 3, 0, 0, [0, 1, 1, 0]>, <62, 4, 18, 14, 3, 0, 0, [0, 1, 1, 0]>, <63, 5, 19, 14, 3, 0, 0, [0, 1, 1, 0]>, <64, 6, 20, 14, 3, 0, 0, [0, 1, 1, 0]>, <65, 7, 21, 14, 3, 0, 0, [0, 1, 1, 0]>, <66, 8, 22, 14, 3, 0, 0, [0, 1, 1, 0]>, <67, 9, 23, 14, 3, 0, 0, [0, 1, 1, 0]>, <68, 10, 24, 14, 3, 0, 0, [0, 1, 1, 0]>, <69, 11, 25, 14, 3, 0, 0, [0, 1, 1, 0]>, <70, 12, 26, 14, 3, 0, 0, [0, 1, 1, 0]>, <71, 13, 27, 14, 3, 0, 0, [0, 1, 1, 0]>, <72, 14, 28, 14, 3, 0, 0, [0, 1, 1, 0]>, <73, 15, 29, 14, 3, 0, 0, [0, 1, 1, 0]>, <74, 0, 13, 13, 4, 0, 1, [1, 0, 0, 1]>, <75, 1, 14, 13, 4, 0, 1, [1, 0, 0, 1]>, <76, 2, 15, 13, 4, 0, 1, [1, 0, 0, 1]>, <77, 3, 16, 13, 4, 0, 1, [1, 0, 0, 1]>, <78, 4, 17, 13, 4, 0, 1, [1, 0, 0, 1]>, <79, 5, 18, 13, 4, 0, 1, [1, 0, 0, 1]>, <80, 7, 20, 13, 4, 0, 1, [1, 0, 0, 1]>, <81, 8, 21, 13, 4, 0, 1, [1, 0, 0, 1]>, <82, 9, 22, 13, 4, 0, 1, [1, 0, 0, 1]>, <83, 10, 23, 13, 4, 0, 1, [1, 0, 0, 1]>, <84, 11, 24, 13, 4, 0, 1, [1, 0, 0, 1]>, <85, 12, 25, 13, 4, 0, 1, [1, 0, 0, 1]>, <86, 13, 26, 13, 4, 0, 1, [1, 0, 0, 1]>, <87, 14, 27, 13, 4, 0, 1, [1, 0, 0, 1]>, <88, 15, 28, 13, 4, 0, 1, [1, 0, 0, 1]>, <89, 16, 29, 13, 4, 0, 1, [1, 0, 0, 1]>, <90, 0, 14, 14, 5, 0, 0, [1, 0, 0, 1]>, <91, 1, 15, 14, 5, 0, 0, [1, 0, 0, 1]>, <92, 2, 16, 14, 5, 0, 0, [1, 0, 0, 1]>, <93, 3, 17, 14, 5, 0, 0, [1, 0, 0, 1]>, <94, 4, 18, 14, 5, 0, 0, [1, 0, 0, 1]>, <95, 5, 19, 14, 5, 0, 0, [1, 0, 0, 1]>, <96, 6, 20, 14, 5, 0, 0, [1, 0, 0, 1]>, <97, 7, 21, 14, 5, 0, 0, [1, 0, 0, 1]>, <98, 8, 22, 14, 5, 0, 0, [1, 0, 0, 1]>, <99, 9, 23, 14, 5, 0, 0, [1, 0, 0, 1]>, <100, 10, 24, 14, 5, 0, 0, [1, 0, 0, 1]>, <101, 11, 25, 14, 5, 0, 0, [1, 0, 0, 1]>, <102, 12, 26, 14, 5, 0, 0, [1, 0, 0, 1]>, <103, 13, 27, 14, 5, 0, 0, [1, 0, 0, 1]>, <104, 14, 28, 14, 5, 0, 0, [1, 0, 0, 1]>, <105, 15, 29, 14, 5, 0, 0, [1, 0, 0, 1]>, <106, 0, 14, 14, 6, 0, 0, [1, 1, 0, 0]>, <107, 1, 15, 14, 6, 0, 0, [1, 1, 0, 0]>, <108, 2, 16, 14, 6, 0, 0, [1, 1, 0, 0]>, <109, 3, 17, 14, 6, 0, 0, [1, 1, 0, 0]>, <110, 4, 18, 14, 6, 0, 0, [1, 1, 0, 0]>, <111, 5, 19, 14, 6, 0, 0, [1, 1, 0, 0]>, <112, 6, 20, 14, 6, 0, 0, [1, 1, 0, 0]>, <113, 7, 21, 14, 6, 0, 0, [1, 1, 0, 0]>, <114, 8, 22, 14, 6, 0, 0, [1, 1, 0, 0]>, <115, 9, 23, 14, 6, 0, 0, [1, 1, 0, 0]>, <116, 10, 24, 14, 6, 0, 0, [1, 1, 0, 0]>, <117, 11, 25, 14, 6, 0, 0, [1, 1, 0, 0]>, <118, 12, 26, 14, 6, 0, 0, [1, 1, 0, 0]>, <119, 13, 27, 14, 6, 0, 0, [1, 1, 0, 0]>, <120, 14, 28, 14, 6, 0, 0, [1, 1, 0, 0]>, <121, 15, 29, 14, 6, 0, 0, [1, 1, 0, 0]>, <122, 1, 12, 11, 7, 0, 0, [1, 0, 0, 1]>, <123, 2, 13, 11, 7, 0, 0, [1, 0, 0, 1]>, <124, 3, 14, 11, 7, 0, 0, [1, 0, 0, 1]>, <125, 4, 15, 11, 7, 0, 0, [1, 0, 0, 1]>, <126, 5, 16, 11, 7, 0, 0, [1, 0, 0, 1]>, <127, 9, 20, 11, 7, 0, 0, [1, 0, 0, 1]>, <128, 10, 21, 11, 7, 0, 0, [1, 0, 0, 1]>, <129, 11, 22, 11, 7, 0, 0, [1, 0, 0, 1]>, <130, 12, 23, 11, 7, 0, 0, [1, 0, 0, 1]>, <131, 13, 24, 11, 7, 0, 0, [1, 0, 0, 1]>, <132, 14, 25, 11, 7, 0, 0, [1, 0, 0, 1]>, <133, 15, 26, 11, 7, 0, 0, [1, 0, 0, 1]>, <134, 16, 27, 11, 7, 0, 0, [1, 0, 0, 1]>, <135, 17, 28, 11, 7, 0, 0, [1, 0, 0, 1]>, <136, 18, 29, 11, 7, 0, 0, [1, 0, 0, 1]>};
